WARNING: for repeatability, setting FPU to use double precision
============================[ Problem Statistics ]=============================
|                                                                             |
|  Number of variables:            50                                         |
|  Number of clauses:             218                                         |
|  Parse time:                   0.00 s                                       |
|                                                                             |
============================[ Search Statistics ]==============================
| Conflicts |          ORIGINAL         |          LEARNT          | Progress |
|           |    Vars  Clauses Literals |    Limit  Clauses Lit/Cl |          |
===============================================================================
===============================================================================
restarts              : 1
conflicts             : 35             (22683 /sec)
decisions             : 54             (0.00 % random) (34997 /sec)
propagations          : 529            (342839 /sec)
conflict literals     : 163            (11.89 % deleted)
Memory used           : 20.00 MB
CPU time              : 0.001543 s

SATISFIABLE
